qe/outputs/qe/cbrdelay_obs_newl/T=6,eliminate=[I_0,I_1,I_2,I_3,I_4,I_5,L_5,lhs=S_5].smt2
; benchmark generated from python API
(set-info :status unknown)
(declare-fun S_2 () Real)
(declare-fun S_3 () Real)
(declare-fun C () Real)
(declare-fun A_3 () Real)
(declare-fun A_4 () Real)
(declare-fun L_3 () Real)
(declare-fun L_2 () Real)
(declare-fun A_2 () Real)
(declare-fun S_0 () Real)
(declare-fun S_1 () Real)
(declare-fun L_1 () Real)
(declare-fun A_1 () Real)
(declare-fun L_0 () Real)
(declare-fun A_0 () Real)
(declare-fun S_4 () Real)
(declare-fun S_5 () Real)
(declare-fun A_5 () Real)
(declare-fun B () Real)
(assert
 (let (($x7793 (<= (+ A_4 (* (- 1.0) L_3) (* (- 2.0) C) (* (- 1.0) S_3)) 0.0)))
 (let (($x7206 (<= (+ A_4 (* (- 1.0) L_3) (* (- 1.0) A_2) L_2 (* (- 2.0) C)) 0.0)))
 (let (($x39 (>= L_0 0.0)))
 (let (($x988 (>= C 5.0)))
 (let (($x914 (>= B 5.0)))
 (let (($x7748 (<= (+ A_4 (* (- 1.0) L_3) (* (- 5.0) C) (* (- 1.0) S_0)) 0.0)))
 (let (($x7736 (<= (+ A_4 (* (- 1.0) L_3) (* (- 4.0) C) (* (- 1.0) S_1)) 0.0)))
 (let (($x8045 (<= (+ A_4 (* (- 1.0) L_3) (* (- 3.0) C) (* (- 1.0) S_2)) 0.0)))
 (let (($x8018 (<= (+ A_4 (* (- 1.0) L_3) (* (- 1.0) A_1) (* (- 3.0) C) L_1) 0.0)))
 (let (($x7754 (<= (+ A_4 (* (- 1.0) L_3) (* (- 1.0) A_0) (* (- 4.0) C) L_0) 0.0)))
 (let (($x1324 (<= (+ A_2 (* (- 1.0) S_3) (* (- 1.0) L_2)) 0.0)))
 (let (($x5573 (or $x1324 (<= (+ A_1 C (* (- 1.0) S_3) (* (- 1.0) L_1)) 0.0) (<= (+ (* 2.0 C) (* (- 1.0) S_3) S_0) 0.0))))
 (let ((?x263 (* (- 1.0) B)))
 (let ((?x306 (* (- 1.0) L_3)))
 (let ((?x1157 (* (- 2.0) C)))
 (let ((?x432 (* (- 1.0) A_1)))
 (let (($x7830 (<= 0.0 (+ A_3 ?x432 ?x1157 L_1 ?x306 ?x263))))
 (let ((?x272 (* (- 1.0) L_1)))
 (let ((?x1136 (* 2.0 C)))
 (let ((?x437 (* (- 1.0) A_3)))
 (let (($x2863 (<= (+ A_1 (* (- 1.0) S_2) ?x272) 0.0)))
 (let (($x1828 (<= (+ A_2 (* (- 3.0) C) (* (- 1.0) S_0) (* (- 1.0) L_2) ?x263) 0.0)))
 (let (($x66 (= L_2 L_1)))
 (let (($x13141 (or $x66 (<= 0.0 (+ A_2 ?x432 (* (- 1.0) C) (* (- 1.0) L_2) L_1)))))
 (let (($x597 (<= 0.0 (+ A_2 ?x432 (* (- 1.0) C) L_1 (* (- 1.0) L_2) ?x263))))
 (let (($x7989 (or $x66 $x597 (<= (+ (* (- 1.0) A_2) ?x1136 S_0 L_2 B) 0.0))))
 (let (($x12917 (or (not $x597) (= (+ (* (- 1.0) A_2) A_1 C ?x272 L_2 B) 0.0))))
 (let (($x12995 (or $x66 (<= (+ (* (- 1.0) A_2) (* (- 1.0) C) S_3 L_2 B) 0.0))))
 (let (($x2099 (<= (+ A_3 (* (- 1.0) A_0) (* (- 3.0) C) ?x306 ?x263 L_0) 0.0)))
 (let (($x7234 (<= 0.0 (+ A_3 (* (- 1.0) A_2) (* (- 1.0) C) L_2 ?x306 ?x263))))
 (let (($x7120 (not $x7234)))
 (let (($x1573 (= (+ ?x437 A_2 (* (- 1.0) L_2) C L_3 B) 0.0)))
 (let (($x76 (= L_3 L_2)))
 (let (($x7938 (or $x76 (<= (+ ?x437 (* 3.0 C) S_0 L_3 B) 0.0) $x7234 $x7830)))
 (let (($x56 (= L_1 L_0)))
 (let (($x1510 (not $x56)))
 (let (($x12868 (or $x76 $x1510 (<= (+ ?x437 A_1 ?x1136 L_3 (* (- 1.0) L_0)) 0.0) $x7234)))
 (let (($x7729 (not (<= 0.0 (+ L_2 ?x306)))))
 (let (($x12764 (or $x56 (<= (+ A_2 ?x432 (* (- 1.0) C) (* (- 1.0) L_2) L_1) 0.0))))
 (let (($x565 (<= 0.0 (+ (* (- 1.0) A_2) A_1 C ?x272 L_2 ?x263))))
 (let (($x575 (<= 0.0 (+ ?x272 L_0))))
 (let (($x12840 (or $x76 (= (+ ?x437 A_2 C (* (- 1.0) L_2) L_3) 0.0) (not (<= 0.0 (+ ?x437 A_2 (* (- 1.0) L_2) C L_3))))))
 (let (($x13070 (or $x66 (<= (+ A_4 ?x306 (* (- 1.0) A_2) ?x1157 L_2 B) 0.0))))
 (let (($x1877 (<= (+ A_2 (* (- 1.0) S_3) (* (- 1.0) L_2) ?x263) 0.0)))
 (let (($x1832 (<= (+ A_2 (* (- 1.0) C) (* (- 1.0) S_2) (* (- 1.0) L_2) ?x263) 0.0)))
 (let (($x1895 (<= (+ A_2 (* (- 1.0) A_0) ?x1157 (* (- 1.0) L_2) ?x263 L_0) 0.0)))
 (let (($x1272 (<= (+ A_1 (* (- 1.0) A_0) (* (- 1.0) C) ?x272 ?x263 L_0) 0.0)))
 (let (($x1231 (<= (+ A_1 (* (- 1.0) S_2) ?x272 ?x263) 0.0)))
 (let (($x128 (>= S_1 S_0)))
 (let (($x131 (>= S_2 S_1)))
 (let (($x134 (>= S_3 S_2)))
 (let (($x140 (>= S_5 S_4)))
 (let (($x142 (>= A_1 A_0)))
 (let (($x143 (>= A_2 A_1)))
 (let (($x144 (>= A_3 A_2)))
 (let (($x145 (>= A_4 A_3)))
 (and (<= (+ A_4 ?x306) S_4) $x145 $x144 $x143 $x142 $x140 $x134 $x131 $x128 (or (not $x575) $x56) $x1231 $x1272 (<= (+ A_1 ?x1157 (* (- 1.0) S_0) ?x272 ?x263) 0.0) (<= (+ A_1 (* (- 1.0) C) (* (- 1.0) S_1) ?x272 ?x263) 0.0) (or $x56 (<= (+ ?x432 S_1 L_1 B) 0.0)) (or $x56 (<= (+ ?x432 C S_0 L_1 B) 0.0)) (or $x56 $x66 (= (+ (* (- 1.0) A_2) A_1 C ?x272 L_2) 0.0)) (<= (+ (* (- 1.0) A_4) L_3 S_5 (* (- 1.0) C)) 0.0) (or $x66 (<= (+ (* (- 1.0) A_2) S_2 L_2 B) 0.0)) $x1895 $x1832 $x1877 $x13070 (or $x76 (<= (+ ?x437 S_3 L_3 B) 0.0)) (or $x56 (<= (+ ?x432 (* (- 1.0) C) S_2 L_1 B) 0.0)) (or $x56 (<= (+ ?x432 S_3 ?x1157 L_1 B) 0.0)) (or $x76 (not $x565) $x1573) (or (<= (+ A_1 (* (- 1.0) S_3) C ?x272 ?x263) 0.0) $x1324) (<= (+ (* (- 1.0) A_0) (* (- 1.0) C) S_1 L_0) 0.0) (or $x76 $x7729) (<= (+ A_3 ?x1157 (* (- 1.0) S_2) ?x306 ?x263) 0.0) (or $x66 (<= 0.0 (+ ?x437 A_2 (* (- 1.0) L_2) C L_3))) (or $x66 (not (<= 0.0 (+ L_1 (* (- 1.0) L_2))))) $x12840 (or $x76 (<= (+ A_4 ?x437 (* (- 1.0) C) B) 0.0)) (or $x76 $x575 (= (+ ?x437 A_1 ?x1136 ?x272 L_3) 0.0) $x7234) (or $x56 $x565 $x7120) $x12764 (or $x56 (<= 0.0 (+ ?x437 A_1 ?x1136 ?x272 L_2)) $x7729) (or $x56 (<= (+ A_4 ?x306 ?x432 (* (- 3.0) C) L_1 B) 0.0)) (<= (+ ?x437 S_3 L_3) 0.0) (or $x76 (<= (+ ?x437 ?x1136 S_1 L_3 B) 0.0) $x7234) (<= (+ A_3 (* (- 1.0) C) (* (- 1.0) S_3) ?x306 ?x263) 0.0) (<= (+ A_3 (* (- 3.0) C) (* (- 1.0) S_1) ?x306 ?x263) 0.0) (or $x76 (<= (+ ?x437 C S_2 L_3 B) 0.0)) $x12868 $x7938 (or $x1573 $x7120) (<= (+ A_3 (* (- 4.0) C) (* (- 1.0) S_0) ?x306 ?x263) 0.0) $x2099 $x12995 $x12917 (or $x66 (<= (+ (* (- 1.0) A_2) C S_1 L_2 B) 0.0)) $x7989 $x13141 $x1828 (<= (+ A_2 ?x1157 (* (- 1.0) S_1) (* (- 1.0) L_2) ?x263) 0.0) (or $x2863 (<= (+ C (* (- 1.0) S_2) S_0) 0.0)) (or (= (+ ?x437 A_1 ?x1136 ?x272 L_3 B) 0.0) (not $x7830)) (or $x1324 (<= (+ C (* (- 1.0) S_3) S_1) 0.0)) $x5573 (<= (+ (* (- 1.0) A_0) ?x1157 S_2 L_0) 0.0) (<= (+ ?x432 (* (- 1.0) C) L_1 S_2) 0.0) (<= (+ ?x432 ?x1157 S_3 L_1) 0.0) (<= (+ ?x1157 S_2 (* (- 1.0) S_1)) 0.0) $x7754 $x8018 (<= (+ (* (- 4.0) C) S_3 (* (- 1.0) S_0)) 0.0) (<= (+ (* (- 3.0) C) S_2 (* (- 1.0) S_0)) 0.0) $x8045 $x7736 (<= (+ (* (- 1.0) A_0) (* (- 3.0) C) S_3 L_0) 0.0) (<= (+ (* (- 3.0) C) S_3 (* (- 1.0) S_1)) 0.0) $x7748 $x914 $x988 $x39 (<= (+ L_3 (* (- 1.0) A_5) S_5) 0.0) (<= (+ (* (- 1.0) A_4) L_3 S_4) 0.0) (<= (+ (* (- 1.0) A_0) S_0 L_0) 0.0) (<= (+ ?x432 S_1 L_1) 0.0) (<= (+ ?x1157 S_1 (* (- 1.0) S_0)) 0.0) (<= (+ (* (- 1.0) A_2) L_2 S_2) 0.0) (<= (+ (* (- 1.0) A_2) S_3 L_2 (* (- 1.0) C)) 0.0) $x7206 $x7793 (<= (+ A_4 ?x437 (* (- 1.0) C)) 0.0) (<= (+ ?x1157 S_3 (* (- 1.0) S_2)) 0.0)))))))))))))))))))))))))))))))))))))))))))))))))))))))))))
(check-sat)
